Minimize
  - 18 y_0 - 6 y_2 - 8 y_3 - 15 y_4 - 13 y_5 - 12 y_6 - 12 y_7 - 9 y_8
   - 10 y_9 + 74 x_0_1 + 95 x_0_2 + 68 x_0_3 + 23 x_0_5 + 40 x_0_6
   + 103 x_0_7 + 87 x_0_8 + 32 x_1_3 + 50 x_1_6 + 35 x_1_8 + 54 x_2_3
   + 76 x_2_5 + 64 x_2_6 + 44 x_4_5 + 73 x_4_6 + 54 x_4_7 + 76 x_5_2
   + 81 x_5_7 + 71 x_5_8 + 94 x_6_7 + 23 x_6_9 + 81 x_7_8 + 28 x_8_9
   + 28 x_8_9 + 28 x_8_9 + 28 x_8_9 + 28 x_8_9 + 28 x_8_9 + 28 x_8_9
   + 28 x_8_9 + 28 x_8_9 + 28 x_8_9 + 28 x_8_9 + 28 x_8_9 + 28 x_8_9
   + 28 x_8_9 + 28 x_8_9 + 28 x_8_9 + 28 x_8_9 + 28 x_8_9 + 28 x_8_9
   + 28 x_8_9 + 28 x_8_9 + 28 x_8_9 + 28 x_8_9 + 28 x_8_9 + 28 x_8_9
   + 28 x_8_9 + 28 x_8_9 + 28 x_8_9 + 28 x_8_9 + 28 x_8_9 + 28 x_8_9
   + 28 x_8_9 + 28 x_8_9 + 28 x_8_9 + 28 x_8_9 + 28 x_8_9 + 28 x_8_9
   + 28 x_8_9 + 28 x_8_9 + 28 x_8_9 + 28 x_8_9 + 28 x_8_9 + 28 x_8_9
   + 28 x_8_9 + 28 x_8_9 + 28 x_8_9 + 28 x_8_9 + 28 x_8_9 + 28 x_8_9
   + 28 x_8_9 + 28 x_8_9 + 28 x_8_9 + 28 x_8_9 + 28 x_8_9 + 28 x_8_9
   + 28 x_8_9 + 28 x_8_9 + 28 x_8_9 + 28 x_8_9 + 28 x_8_9 + 28 x_8_9
   + 28 x_8_9 + 28 x_8_9 + 28 x_8_9 + 28 x_8_9 + 28 x_8_9 + 28 x_8_9
   + 28 x_8_9 + 28 x_8_9 + 28 x_8_9 + 28 x_8_9 + 28 x_8_9 + 28 x_8_9
   + 28 x_8_9 + 28 x_8_9 + 28 x_8_9 + 28 x_8_9 + 28 x_8_9 + 28 x_8_9
   + 28 x_8_9 + 28 x_8_9 + 28 x_8_9 + 28 x_8_9 + 28 x_8_9 + 28 x_8_9
   + 28 x_8_9 + 28 x_8_9 + 28 x_8_9 + 28 x_8_9 + 28 x_8_9 + 28 x_8_9
   + 28 x_8_9 + 28 x_8_9 + 28 x_8_9 + 28 x_8_9 + 28 x_8_9 + 28 x_8_9
   + 28 x_8_9 + 28 x_8_9 + 28 x_8_9 + 28 x_8_9 + 28 x_8_9 + 28 x_8_9
   + 28 x_8_9 + 28 x_8_9 + 28 x_8_9 + 28 x_8_9 + 28 x_8_9 + 28 x_8_9
   + 28 x_8_9 + 28 x_8_9 + 28 x_8_9 + 28 x_8_9 + 28 x_8_9 + 28 x_8_9
   + 28 x_8_9 + 28 x_8_9 + 28 x_8_9 + 28 x_8_9 + 28 x_8_9 + 28 x_8_9
   + 28 x_8_9 + 28 x_8_9 + 28 x_8_9 + 28 x_8_9 + 28 x_8_9 + 28 x_8_9
   + 28 x_8_9 + 28 x_8_9 + 28 x_8_9 + 28 x_8_9 + 28 x_8_9 + 28 x_8_9
   + 28 x_8_9 + 28 x_8_9 + 28 x_8_9 + 28 x_8_9 + 28 x_8_9 + 28 x_8_9
   + 28 x_8_9 + 28 x_8_9 + 28 x_8_9 + 28 x_8_9 + 28 x_8_9 + 28 x_8_9
   + 28 x_8_9 + 28 x_8_9 + 28 x_8_9 + 28 x_8_9 + 28 x_8_9 + 28 x_8_9
   + 28 x_8_9 + 28 x_8_9 + 28 x_8_9 + 28 x_8_9 + 28 x_8_9 + 28 x_8_9
   + 28 x_8_9 + 28 x_8_9 + 28 x_8_9 + 28 x_8_9 + 28 x_8_9 + 28 x_8_9
   + 28 x_8_9 + 28 x_8_9 + 28 x_8_9 + 28 x_8_9 + 28 x_8_9 + 28 x_8_9
   + 28 x_8_9 + 28 x_8_9 + 28 x_8_9 + 28 x_8_9 + 28 x_8_9 + 28 x_8_9
   + 28 x_8_9 + 28 x_8_9 + 28 x_8_9 + 28 x_8_9 + 28 x_8_9 + 28 x_8_9
   + 28 x_8_9 + 28 x_8_9 + 28 x_8_9 + 28 x_8_9 + 28 x_8_9 + 28 x_8_9
   + 28 x_8_9 + 28 x_8_9 + 28 x_8_9 + 28 x_8_9 + 28 x_8_9 + 28 x_8_9
   + 28 x_8_9 + 28 x_8_9 + 28 x_8_9 + 28 x_8_9 + 28 x_8_9 + 28 x_8_9
   + 28 x_8_9 + 28 x_8_9 + 28 x_8_9 + 28 x_8_9 + 28 x_8_9 + 28 x_8_9
   + 28 x_8_9 + 28 x_8_9 + 28 x_8_9 + 28 x_8_9 + 103 Constant
Subject To
 c_0: y_0 = 1
 c_1_0: y_0 >= 1
 c_1_1: y_1 >= 1
 c_1_2: y_2 >= 1
 c_1_3: y_3 >= 1
 c_1_4: y_4 >= 1
 c_1_5: y_5 >= 1
 c_1_6: y_6 >= 1
 c_1_7: y_7 >= 1
 c_1_8: y_8 >= 1
 c_1_9: y_9 >= 1
 c_2_0: - 2 y_0 + x_0_1 + x_0_2 + x_0_3 + x_0_5 + x_0_6 + x_0_7 + x_0_8
   = 0
 c_2_1: - 2 y_1 + x_0_1 + x_1_3 + x_1_6 + x_1_8 = 0
 c_2_2: - 2 y_2 + x_0_2 + x_2_3 + x_2_6 + 2 x_5_2 = 0
 c_2_3: - 2 y_3 + x_0_3 + x_1_3 + x_2_3 = 0
 c_2_4: - 2 y_4 + x_4_5 + x_4_6 + x_4_7 = 0
 c_2_5: - 2 y_5 + x_0_5 + x_4_5 + 2 x_5_2 + x_5_7 + x_5_8 = 0
 c_2_6: - 2 y_6 + x_0_6 + x_1_6 + x_2_6 + x_4_6 + x_6_7 + x_6_9 = 0
 c_2_7: - 2 y_7 + x_0_7 + x_4_7 + x_5_7 + x_6_7 + x_7_8 = 0
 c_2_8: - 2 y_8 + x_0_8 + x_1_8 + x_5_8 + x_7_8 + 209 x_8_9 = 0
 c_2_9: - 2 y_9 + x_6_9 + 209 x_8_9 = 0
Bounds
 Constant = 1
Binaries
 y_0 y_1 y_2 y_3 y_4 y_5 y_6 y_7 y_8 y_9 x_0_1 x_0_2 x_0_3 x_0_5 x_0_6
 x_0_7 x_0_8 x_1_3 x_1_6 x_1_8 x_2_3 x_2_5 x_2_6 x_4_5 x_4_6 x_4_7 x_5_2
 x_5_7 x_5_8 x_6_7 x_6_9 x_7_8 x_8_9 x_8_9 x_8_9 x_8_9 x_8_9 x_8_9 x_8_9
 x_8_9 x_8_9 x_8_9 x_8_9 x_8_9 x_8_9 x_8_9 x_8_9 x_8_9 x_8_9 x_8_9 x_8_9
 x_8_9 x_8_9 x_8_9 x_8_9 x_8_9 x_8_9 x_8_9 x_8_9 x_8_9 x_8_9 x_8_9 x_8_9
 x_8_9 x_8_9 x_8_9 x_8_9 x_8_9 x_8_9 x_8_9 x_8_9 x_8_9 x_8_9 x_8_9 x_8_9
 x_8_9 x_8_9 x_8_9 x_8_9 x_8_9 x_8_9 x_8_9 x_8_9 x_8_9 x_8_9 x_8_9 x_8_9
 x_8_9 x_8_9 x_8_9 x_8_9 x_8_9 x_8_9 x_8_9 x_8_9 x_8_9 x_8_9 x_8_9 x_8_9
 x_8_9 x_8_9 x_8_9 x_8_9 x_8_9 x_8_9 x_8_9 x_8_9 x_8_9 x_8_9 x_8_9 x_8_9
 x_8_9 x_8_9 x_8_9 x_8_9 x_8_9 x_8_9 x_8_9 x_8_9 x_8_9 x_8_9 x_8_9 x_8_9
 x_8_9 x_8_9 x_8_9 x_8_9 x_8_9 x_8_9 x_8_9 x_8_9 x_8_9 x_8_9 x_8_9 x_8_9
 x_8_9 x_8_9 x_8_9 x_8_9 x_8_9 x_8_9 x_8_9 x_8_9 x_8_9 x_8_9 x_8_9 x_8_9
 x_8_9 x_8_9 x_8_9 x_8_9 x_8_9 x_8_9 x_8_9 x_8_9 x_8_9 x_8_9 x_8_9 x_8_9
 x_8_9 x_8_9 x_8_9 x_8_9 x_8_9 x_8_9 x_8_9 x_8_9 x_8_9 x_8_9 x_8_9 x_8_9
 x_8_9 x_8_9 x_8_9 x_8_9 x_8_9 x_8_9 x_8_9 x_8_9 x_8_9 x_8_9 x_8_9 x_8_9
 x_8_9 x_8_9 x_8_9 x_8_9 x_8_9 x_8_9 x_8_9 x_8_9 x_8_9 x_8_9 x_8_9 x_8_9
 x_8_9 x_8_9 x_8_9 x_8_9 x_8_9 x_8_9 x_8_9 x_8_9 x_8_9 x_8_9 x_8_9 x_8_9
 x_8_9 x_8_9 x_8_9 x_8_9 x_8_9 x_8_9 x_8_9 x_8_9 x_8_9 x_8_9 x_8_9 x_8_9
 x_8_9 x_8_9 x_8_9 x_8_9 x_8_9 x_8_9 x_8_9 x_8_9 x_8_9 x_8_9 x_8_9 x_8_9
 x_8_9 x_8_9 x_8_9 x_8_9 x_8_9 x_8_9 x_8_9 x_8_9 x_8_9 x_8_9
End
